#
# 01_H CCSD(T)/Def2-TZVPPD
#
! MP2 Def2-TZVPPD tightscf

*xyz 0 2
 H 0.0 0.0 0.0
*

