#
# 03_Li CCSD(T)/Def2-TZVPPD
#
! HF Def2-TZVPPD tightscf

*xyz 0 2
 Li 0.0 0.0 0.0
*

%method
NewNCore Li 2 end
end

