#
# 09_F CCSD(T)/Def2-TZVPPD
#
! CCSD(T) Def2-TZVPPD tightscf

*xyz 0 2
 F 0.0 0.0 0.0
*

%maxcore 5000 

%pal
nprocs 21
end

