#
# 11_Na CCSD(T)/Def2-TZVPPD
#
! HF Def2-TZVPPD tightscf

*xyz 0 2
 Na 0.0 0.0 0.0
*

%maxcore 5000 

%pal
nprocs 24
end

%method
NewNCore Na 10 end
end

