#
# 14_Si CCSD(T)/Def2-TZVPPD
#
! CCSD(T) Def2-TZVPPD tightscf

*xyz 0 3
 Si 0.0 0.0 0.0
*

%maxcore 5000 

%pal
nprocs 6
end

