#
# 16_S CCSD(T)/Def2-TZVPPD
#
! CCSD(T) Def2-TZVPPD tightscf

*xyz 0 3
 S 0.0 0.0 0.0
*

%maxcore 5000 

%pal
nprocs 15
end

