#
# 21_Sc CCSD(T)/Def2-TZVPPD
#
! CCSD(T) Def2-TZVPPD tightscf

*xyz 0 2
 Sc 0.0 0.0 0.0
*

%maxcore 5000 

%pal
nprocs 24
end

