#
# 33_As CCSD(T)/Def2-TZVPPD
#
! CCSD(T) Def2-TZVPPD tightscf

*xyz 0 4
 As 0.0 0.0 0.0
*

%maxcore 5000 

%pal
nprocs 24
end

