#
# 40_Zr CCSD(T)/Def2-TZVPPD
#
! CCSD(T) Def2-TZVPPD verytightscf veryslowconv kdiis uno

*xyz 0 3
 Zr 0.0 0.0 0.0
*

%maxcore 5000 

%pal
nprocs 24
end

%mdci
useqros true
maxiter 100
maxdiis 25
end

%scf
maxiter 200
diismaxeq 40
directresetfreq 1
end

