#
# 55_Cs CCSD(T)/Def2-TZVPPD
#
! CCSD(T) Def2-TZVPPD tightscf

*xyz 0 2
 Cs 0.0 0.0 0.0
*

%maxcore 5000 

%pal
nprocs 24
end

%method
NewNCore Cs 46 end
end

