#
# 60_Nd CCSD(T)/Def2-TZVPPD
#
! CCSD(T) Def2-TZVPPD tightscf

*xyz 0 5
 Nd 0.0 0.0 0.0
*

%maxcore 5000 

%pal
nprocs 24
end

