#
# 61_Pm CCSD(T)/Def2-TZVPPD
#
! CCSD(T) Def2-TZVPPD verytightscf kdiis

*xyz 0 6
 Pm 0.0 0.0 0.0
*

%maxcore 5000 

%pal
nprocs 24
end

%scf
maxiter 300
diismaxeq 40
directresetfreq 1
end

