#
# 65_Tb CCSD(T)/Def2-TZVPPD
#
! CCSD(T) Def2-TZVPPD verytightscf kdiis

*xyz 0 6
 Tb 0.0 0.0 0.0
*

%maxcore 5000 

%pal
nprocs 24
end

%mdci
MaxDIIS 40
maxiter 200
end

