#
# 67_Ho CCSD(T)/Def2-TZVPPD
#
! CCSD(T) Def2-TZVPPD verytightscf kdiis

*xyz 0 4
 Ho 0.0 0.0 0.0
*

%maxcore 5000 

%pal
nprocs 24
end

%scf
maxiter 300
directresetfreq 1
diismaxeq 40
end

