#
# 68_Er CCSD(T)/Def2-TZVPPD
#
! CCSD(T) Def2-TZVPPD verytightscf veryslowconv kdiis

*xyz 0 3
 Er 0.0 0.0 0.0
*

%maxcore 5000 

%pal
nprocs 24
end

%scf
diismaxeq 40
directresetfreq 1
end

