#
# 74_W CCSD(T)/Def2-TZVPPD
#
! CCSD(T) Def2-TZVPPD tightscf veryslowconv kdiis

*xyz 0 5
 W 0.0 0.0 0.0
*

%maxcore 5000 

%pal
nprocs 24
end

%method
NewNCore W 60 end
end

