#
# 85_At CCSD(T)/Def2-TZVPPD
#
! CCSD(T) Def2-TZVPPD tightscf slowconv

*xyz 0 2
 At 0.0 0.0 0.0
*

%maxcore 5000 

%pal
nprocs 24
end

