#
# 01_H CCSD(T)/aug-cc-pv5(+d)z
#
! MP2 aug-cc-pv5(+d)z tightscf

*xyz 0 2
 H 0.0 0.0 0.0
*

