#
# 04_Be CCSD(T)/aug-cc-pv5(+d)z
#
! CCSD(T) aug-cc-pv5(+d)z tightscf

*xyz 0 1
 Be 0.0 0.0 0.0
*

%maxcore 5000 

%pal
nprocs 1 
end

%method
NewNCore Be 2 end
end

