#
# 11_Na CCSD(T)/aug-cc-pv5(+d)z
#
! HF aug-cc-pv5(+d)z tightscf

*xyz 0 2
 Na 0.0 0.0 0.0
*

%maxcore 5000 

%pal
nprocs 24
end

%method
NewNCore Na 10 end
end

