#
# 18_Ar CCSD(T)/aug-cc-pv5(+d)z
#
! CCSD(T) aug-cc-pv5(+d)z tightscf

*xyz 0 1
 Ar 0.0 0.0 0.0
*

%maxcore 5000 

%pal
nprocs 10
end

