#
# 21_Sc CCSD(T)/aug-cc-pv5(+d)z
#
! CCSD(T) aug-cc-pv5(+d)z tightscf slowconv kdiis

*xyz 0 2
 Sc 0.0 0.0 0.0
*

%maxcore 5000 

%pal
nprocs 24
end

