#
# 40_Zr CCSD(T)/aug-cc-pv5(+d)z
#
! CCSD(T) aug-cc-pv5(+d)z verytightscf slowconv kdiis

*xyz 0 3
 Zr 0.0 0.0 0.0
*

%maxcore 5000 

%pal
nprocs 24
end

%mdci
maxiter 100
maxdiis 25
end

