#
# 41_Nb CCSD(T)/aug-cc-pv5(+d)z
#
! CCSD(T) aug-cc-pv5(+d)z tightscf

*xyz 0 6
 Nb 0.0 0.0 0.0
*

%maxcore 5000 

%pal
nprocs 24
end

