#
# 44_Ru CCSD(T)/aug-cc-pv5(+d)z
#
! CCSD(T) aug-cc-pv5(+d)z tightscf slowconv

*xyz 0 5
 Ru 0.0 0.0 0.0
*

%maxcore 5000 

%pal
nprocs 24
end

