#
# 60_Nd CCSD(T)/aug-cc-pv5(+d)z
#
! CCSD(T) aug-cc-pv5(+d)z tightscf

*xyz 0 5
 Nd 0.0 0.0 0.0
*

%maxcore 5000 

%pal
nprocs 24
end

