#
# 68_Er CCSD(T)/aug-cc-pv5(+d)z
#
! CCSD(T) aug-cc-pv5(+d)z verytightscf veryslowconv kdiis

*xyz 0 3
 Er 0.0 0.0 0.0
*

%maxcore 5000 

%pal
nprocs 24
end

%scf
diismaxeq 40
directresetfreq 1
end

