#
# 71_Lu CCSD(T)/aug-cc-pv5(+d)z
#
! CCSD(T) aug-cc-pv5(+d)z tightscf slowconv hcore

*xyz 0 2
 Lu 0.0 0.0 0.0
*

%maxcore 5000 

%pal
nprocs 24
end

