#
# 83_Bi CCSD(T)/aug-cc-pv5(+d)z
#
! CCSD(T) aug-cc-pv5(+d)z tightscf slowconv

*xyz 0 4
 Bi 0.0 0.0 0.0
*

%maxcore 5000 

%pal
nprocs 24
end

