#
# 01_H CCSD(T)/Def2-TZVP
#
! MP2 Def2-TZVP tightscf

*xyz 0 2
 H 0.0 0.0 0.0
*

