#
# 03_Li CCSD(T)/Def2-TZVP
#
! HF Def2-TZVP tightscf

*xyz 0 2
 Li 0.0 0.0 0.0
*

%method
NewNCore Li 2 end
end

