#
# 09_F CCSD(T)/Def2-TZVP
#
! CCSD(T) Def2-TZVP tightscf

*xyz 0 2
 F 0.0 0.0 0.0
*

%maxcore 5000 

%pal
nprocs 21
end

