#
# 12_Mg CCSD(T)/Def2-TZVP
#
! CCSD(T) Def2-TZVP tightscf

*xyz 0 1
 Mg 0.0 0.0 0.0
*

%maxcore 5000 

%pal
nprocs 1
end

%method
NewNCore Mg 10 end
end

