#
# 14_Si CCSD(T)/Def2-TZVP
#
! CCSD(T) Def2-TZVP tightscf

*xyz 0 3
 Si 0.0 0.0 0.0
*

%maxcore 5000 

%pal
nprocs 6
end

