#
# 15_P CCSD(T)/Def2-TZVP
#
! CCSD(T) Def2-TZVP tightscf

*xyz 0 4
 P 0.0 0.0 0.0
*

%maxcore 5000 

%pal
nprocs 10
end

