#
# 40_Zr CCSD(T)/Def2-TZVP
#
! CCSD(T) Def2-TZVP tightscf slowconv kdiis

*xyz 0 3
 Zr 0.0 0.0 0.0
*

%maxcore 5000 

%pal
nprocs 24
end

