#
# 41_Nb CCSD(T)/Def2-TZVP
#
! CCSD(T) Def2-TZVP tightscf Patom

*xyz 0 6
 Nb 0.0 0.0 0.0
*

%maxcore 5000 

%pal
nprocs 24
end

