#
# 42_Mo CCSD(T)/Def2-TZVP
#
! CCSD(T) Def2-TZVP tightscf

*xyz 0 7
 Mo 0.0 0.0 0.0
*

%maxcore 5000 

%pal
nprocs 24
end

