#
# 43_Tc CCSD(T)/Def2-TZVP
#
! CCSD(T) Def2-TZVP tightscf veryslowconv kdiis

*xyz 0 6
 Tc 0.0 0.0 0.0
*

%maxcore 5000 

%pal
nprocs 24
end

%scf
maxiter 200
diismaxeq 40
directresetfreq 1
end

