#
# 54_Xe CCSD(T)/Def2-TZVP
#
! CCSD(T) Def2-TZVP tightscf

*xyz 0 1
 Xe 0.0 0.0 0.0
*

%maxcore 5000 

%pal
nprocs 24
end

