#
# 58_Ce CCSD(T)/Def2-TZVP
#
! CCSD(T) Def2-TZVP tightscf hcore veryslowconv kdiis

*xyz 0 3
 Ce 0.0 0.0 0.0
*

%maxcore 5000 

%pal
nprocs 24
end

%scf
diismaxeq 40
directresetfreq 1
end
