#
# 73_Ta CCSD(T)/Def2-TZVP
#
! CCSD(T) Def2-TZVP tightscf

*xyz 0 4
 Ta 0.0 0.0 0.0
*

%maxcore 5000 

%pal
nprocs 24
end

%method
NewNCore Ta 60 end
end

