#
# 01_H CCSD(T)/aug-cc-pVTZ
#
! MP2 aug-cc-pVTZ tightscf

*xyz 0 2
 H 0.0 0.0 0.0
*

