#
# 03_Li CCSD(T)/aug-cc-pVTZ
#
! HF aug-cc-pVTZ tightscf

*xyz 0 2
 Li 0.0 0.0 0.0
*

%method
NewNCore Li 2 end
end

