#
# 05_B CCSD(T)/aug-cc-pVTZ
#
! CCSD(T) aug-cc-pVTZ tightscf

*xyz 0 2
 B 0.0 0.0 0.0
*

%maxcore 5000 

%pal
nprocs 3 
end

