#
# 06_C CCSD(T)/aug-cc-pVTZ
#
! CCSD(T) aug-cc-pVTZ tightscf

*xyz 0 3
 C 0.0 0.0 0.0
*

%maxcore 5000 

%pal
nprocs 6 
end

