#
# 14_Si CCSD(T)/aug-cc-pVTZ
#
! CCSD(T) aug-cc-pVTZ tightscf

*xyz 0 3
 Si 0.0 0.0 0.0
*

%maxcore 5000 

%pal
nprocs 6
end

