#
# 16_S CCSD(T)/aug-cc-pVTZ
#
! CCSD(T) aug-cc-pVTZ tightscf

*xyz 0 3
 S 0.0 0.0 0.0
*

%maxcore 5000 

%pal
nprocs 15
end

