#
# 19_K CCSD(T)/aug-cc-pVTZ
#
! CCSD(T) aug-cc-pVTZ tightscf

*xyz 0 2
 K 0.0 0.0 0.0
*

%maxcore 5000 

%pal
nprocs 24
end

