#
# 26_Fe CCSD(T)/aug-cc-pVTZ
#
! CCSD(T) aug-cc-pVTZ tightscf slowconv

*xyz 0 5
 Fe 0.0 0.0 0.0
*

%maxcore 5000 

%pal
nprocs 24
end

