#
# 34_Se CCSD(T)/aug-cc-pVTZ
#
! CCSD(T) aug-cc-pVTZ tightscf

*xyz 0 3
 Se 0.0 0.0 0.0
*

%maxcore 5000 

%pal
nprocs 24
end

