#
# 37_Rb CCSD(T)/aug-cc-pVTZ-PP
#
! CCSD(T) aug-cc-pVTZ-PP tightscf

*xyz 0 2
 Rb 0.0 0.0 0.0
*

%maxcore 5000 

%pal
nprocs 24
end

%method
NewNCore Rb 28 end
end

