#
# 51_Sb CCSD(T)/aug-cc-pVTZ-PP
#
! CCSD(T) aug-cc-pVTZ-PP tightscf

*xyz 0 4
 Sb 0.0 0.0 0.0
*

%maxcore 5000 

%pal
nprocs 24
end

