#
# 54_Xe CCSD(T)/aug-cc-pVTZ-PP
#
! CCSD(T) aug-cc-pVTZ-PP tightscf

*xyz 0 1
 Xe 0.0 0.0 0.0
*

%maxcore 5000 

%pal
nprocs 24
end

