#
# 56_Ba CCSD(T)/aug-cc-pVTZ-PP
#
! CCSD(T) aug-cc-pVTZ-PP tightscf

*xyz 0 1
 Ba 0.0 0.0 0.0
*

%maxcore 5000 

%pal
nprocs 15
end

%method
NewNCore Ba 46 end
end

