#
# 82_Pb CCSD(T)/aug-cc-pVTZ-PP
#
! CCSD(T) aug-cc-pVTZ-PP tightscf slowconv

*xyz 0 3
 Pb 0.0 0.0 0.0
*

%maxcore 5000 

%pal
nprocs 24
end

