#
# 01_H CCSD(T)/aug-cc-pVQZ
#
! MP2 aug-cc-pVQZ tightscf

*xyz 0 2
 H 0.0 0.0 0.0
*

