#
# 02_He CCSD(T)/aug-cc-pVQZ
#
! CCSD(T) aug-cc-pVQZ tightscf

*xyz 0 1
 He 0.0 0.0 0.0
*

%maxcore 5000 

%pal
nprocs 1
end

