#
# 13_Al CCSD(T)/aug-cc-pVQZ
#
! CCSD(T) aug-cc-pVQZ tightscf

*xyz 0 2
 Al 0.0 0.0 0.0
*

%maxcore 5000 

%pal
nprocs 3
end

