#
# 17_Cl CCSD(T)/aug-cc-pVQZ
#
! CCSD(T) aug-cc-pVQZ tightscf

*xyz 0 2
 Cl 0.0 0.0 0.0
*

%maxcore 5000 

%pal
nprocs 21
end

