#
# 20_Ca CCSD(T)/aug-cc-pVQZ
#
! CCSD(T) aug-cc-pVQZ tightscf

*xyz 0 1
 Ca 0.0 0.0 0.0
*

%maxcore 5000 

%pal
nprocs 15
end

