#
# 30_Zn CCSD(T)/aug-cc-pVQZ
#
! CCSD(T) aug-cc-pVQZ tightscf

*xyz 0 1
 Zn 0.0 0.0 0.0
*

%maxcore 5000 

%pal
nprocs 24
end

