#
# 58_Ce CCSD(T)/aug-cc-pVQZ-PP
#
! CCSD(T) aug-cc-pVQZ-PP tightscf

*xyz 0 3
 Ce 0.0 0.0 0.0
*

%maxcore 5000 

%pal
nprocs 24
end

