#
# 61_Pm CCSD(T)/aug-cc-pVQZ-PP
#
! CCSD(T) aug-cc-pVQZ-PP verytightscf kdiis

*xyz 0 6
 Pm 0.0 0.0 0.0
*

%maxcore 5000 

%pal
nprocs 24
end

%scf
maxiter 300
diismaxeq 40
directresetfreq 1
end

