#
# 65_Tb CCSD(T)/aug-cc-pVQZ-PP
#
! CCSD(T) aug-cc-pVQZ-PP verytightscf kdiis

*xyz 0 6
 Tb 0.0 0.0 0.0
*

%maxcore 5000 

%pal
nprocs 24
end

%mdci
MaxDIIS 40
maxiter 200
end

