#
# 78_Pt CCSD(T)/aug-cc-pVQZ-PP
#
! CCSD(T) aug-cc-pVQZ-PP tightscf veryslowconv kdiis

*xyz 0 3
 Pt 0.0 0.0 0.0
*

%maxcore 5000 

%pal
nprocs 24
end

%method
NewNCore Pt 60 end
end

