#
# 85_At CCSD(T)/aug-cc-pVQZ-PP
#
! CCSD(T) aug-cc-pVQZ-PP tightscf slowconv

*xyz 0 2
 At 0.0 0.0 0.0
*

%maxcore 5000 

%pal
nprocs 24
end

