#
# 01_H CCSD(T)/aug-cc-pV5Z
#
! MP2 aug-cc-pV5Z tightscf

*xyz 0 2
 H 0.0 0.0 0.0
*

