#
# 03_Li CCSD(T)/aug-cc-pV5Z
#
! HF aug-cc-pV5Z tightscf

*xyz 0 2
 Li 0.0 0.0 0.0
*

%method
NewNCore Li 2 end
end

