#
# 08_O CCSD(T)/aug-cc-pV5Z
#
! CCSD(T) aug-cc-pV5Z tightscf

*xyz 0 3
 O 0.0 0.0 0.0
*

%maxcore 5000 

%pal
nprocs 15
end

