#
# 09_F CCSD(T)/aug-cc-pV5Z
#
! CCSD(T) aug-cc-pV5Z tightscf

*xyz 0 2
 F 0.0 0.0 0.0
*

%maxcore 5000 

%pal
nprocs 21
end

