#
# 14_Si CCSD(T)/aug-cc-pV5Z
#
! CCSD(T) aug-cc-pV5Z tightscf

*xyz 0 3
 Si 0.0 0.0 0.0
*

%maxcore 5000 

%pal
nprocs 6
end

