#
# 18_Ar CCSD(T)/aug-cc-pV5Z
#
! CCSD(T) aug-cc-pV5Z tightscf

*xyz 0 1
 Ar 0.0 0.0 0.0
*

%maxcore 5000 

%pal
nprocs 10
end

