#
# 27_Co CCSD(T)/aug-cc-pV5Z
#
! CCSD(T) aug-cc-pV5Z tightscf

*xyz 0 4
 Co 0.0 0.0 0.0
*

%maxcore 5000 

%pal
nprocs 24
end

