#
# 31_Ga CCSD(T)/aug-cc-pV5Z
#
! CCSD(T) aug-cc-pV5Z tightscf

*xyz 0 2
 Ga 0.0 0.0 0.0
*

%maxcore 5000 

%pal
nprocs 24
end

