#
# 38_Sr CCSD(T)/aug-cc-pV5Z
#
! CCSD(T) aug-cc-pV5Z tightscf

*xyz 0 1
 Sr 0.0 0.0 0.0
*

%maxcore 5000 

%pal
nprocs 15 
end

%method
NewNCore Sr 28 end
end

