#
# 57_La CCSD(T)/aug-cc-pV5Z
#
! CCSD(T) aug-cc-pV5Z verytightscf kdiis UNO

*xyz 0 2
 La 0.0 0.0 0.0
*

%maxcore 5000 

%pal
nprocs 24
end

%method
NewNCore La 46 end
end

%mdci
UseQROs true
maxdiis 40
maxiter 200
end

