#
# 60_Nd CCSD(T)/aug-cc-pV5Z
#
! CCSD(T) aug-cc-pV5Z tightscf

*xyz 0 5
 Nd 0.0 0.0 0.0
*

%maxcore 5000 

%pal
nprocs 24
end

