#
# 71_Lu CCSD(T)/aug-cc-pV5Z
#
! CCSD(T) aug-cc-pV5Z tightscf slowconv hcore

*xyz 0 2
 Lu 0.0 0.0 0.0
*

%maxcore 5000 

%pal
nprocs 24
end

