#
# 79_Au CCSD(T)/aug-cc-pV5Z
#
! CCSD(T) aug-cc-pV5Z tightscf slowconv

*xyz 0 2
 Au 0.0 0.0 0.0
*

%maxcore 5000 

%pal
nprocs 24
end

%method
NewNCore Au 60 end
end

