#
# 85_At CCSD(T)/aug-cc-pV5Z
#
! CCSD(T) aug-cc-pV5Z tightscf slowconv

*xyz 0 1
 Rn 0.0 0.0 0.0
*

%maxcore 5000 

%pal
nprocs 24
end

