#
# 01_H CCSD(T)/Def2-SVP
#
! MP2 Def2-SVP tightscf

*xyz 0 2
 H 0.0 0.0 0.0
*

