#
# 03_Li CCSD(T)/Def2-SVP
#
! HF Def2-SVP tightscf

*xyz 0 2
 Li 0.0 0.0 0.0
*

%method
NewNCore Li 2 end
end

