#
# 07_N CCSD(T)/Def2-SVP
#
! CCSD(T) Def2-SVP tightscf

*xyz 0 4
 N 0.0 0.0 0.0
*

%maxcore 5000 

%pal
nprocs 24
end

