#
# 08_O CCSD(T)/Def2-SVP
#
! CCSD(T) Def2-SVP tightscf

*xyz 0 3
 O 0.0 0.0 0.0
*

%maxcore 5000 

%pal
nprocs 15
end

