#
# 15_P CCSD(T)/Def2-SVP
#
! CCSD(T) Def2-SVP tightscf

*xyz 0 4
 P 0.0 0.0 0.0
*

%maxcore 5000 

%pal
nprocs 24
end

