#
# 18_Ar CCSD(T)/Def2-SVP
#
! CCSD(T) Def2-SVP tightscf

*xyz 0 1
 Ar 0.0 0.0 0.0
*

%maxcore 5000 

%pal
nprocs 24
end

