#
# 28_Ni CCSD(T)/Def2-SVP
#
! CCSD(T) Def2-SVP tightscf

*xyz 0 3
 Ni 0.0 0.0 0.0
*

%maxcore 5000 

%pal
nprocs 24
end

