#
# 38_Sr CCSD(T)/Def2-SVP
#
! CCSD(T) Def2-SVP tightscf

*xyz 0 1
 Sr 0.0 0.0 0.0
*

%maxcore 5000 

%pal
nprocs 24
end

%method
NewNVore Sr 28 end
end

