#
# 55_Cs CCSD(T)/Def2-SVP
#
! CCSD(T) Def2-SVP tightscf

*xyz 0 2
 Cs 0.0 0.0 0.0
*

%maxcore 5000 

%pal
nprocs 24
end

%method
NewNVore Cs 46 end
end

