#
# 57_La CCSD(T)/Def2-SVP
#
! CCSD(T) Def2-SVP tightscf

*xyz 0 2
 La 0.0 0.0 0.0
*

%maxcore 5000 

%pal
nprocs 24
end

%method
NewNVore La 46 end
end

