#
# 62_Sm CCSD(T)/Def2-SVP
#
! CCSD(T) Def2-SVP tightscf

*xyz 0 7
 Sm 0.0 0.0 0.0
*

%maxcore 5000 

%pal
nprocs 24
end

