#
# 68_Er CCSD(T)/Def2-SVP
#
! CCSD(T) Def2-SVP verytightscf kdiis veryslowconv uno

*xyz 0 3
 Er 0.0 0.0 0.0
*

%maxcore 5000 

%pal
nprocs 24
end

%scf
diismaxeq 40
directresetfreq 1
end

%mdci
useqros true
maxiter 100
maxdiis 40 
end

