#
# 79_Au CCSD(T)/Def2-SVP
#
! CCSD(T) Def2-SVP tightscf

*xyz 0 2
 Au 0.0 0.0 0.0
*

%maxcore 5000 

%pal
nprocs 24
end

%method
NewNVore Au 60 end
end

