#
# 01_H CCSD(T)/Def2-QZVPPD
#
! MP2 Def2-QZVPPD tightscf

*xyz 0 2
 H 0.0 0.0 0.0
*

