#
# 03_Li CCSD(T)/Def2-QZVPPD
#
! HF Def2-QZVPPD tightscf

*xyz 0 2
 Li 0.0 0.0 0.0
*

%method
NewNCore Li 2 end
end

