#
# 06_C CCSD(T)/Def2-QZVPPD
#
! CCSD(T) Def2-QZVPPD tightscf

*xyz 0 3
 C 0.0 0.0 0.0
*

%maxcore 5000 

%pal
nprocs 6 
end

