#
# 09_F CCSD(T)/Def2-QZVPPD
#
! CCSD(T) Def2-QZVPPD tightscf

*xyz 0 2
 F 0.0 0.0 0.0
*

%maxcore 5000 

%pal
nprocs 21
end

