#
# 10_Ne CCSD(T)/Def2-QZVPPD
#
! CCSD(T) Def2-QZVPPD tightscf

*xyz 0 1
 Ne 0.0 0.0 0.0
*

%maxcore 5000 

%pal
nprocs 10
end

