#
# 11_Na CCSD(T)/Def2-QZVPPD
#
! HF Def2-QZVPPD tightscf

*xyz 0 2
 Na 0.0 0.0 0.0
*

%maxcore 5000 

%pal
nprocs 24
end

%method
NewNCore Na 10 end
end

