#
# 18_Ar CCSD(T)/Def2-QZVPPD
#
! CCSD(T) Def2-QZVPPD tightscf

*xyz 0 1
 Ar 0.0 0.0 0.0
*

%maxcore 5000 

%pal
nprocs 10
end

