#
# 22_Ti CCSD(T)/Def2-QZVPPD
#
! CCSD(T) Def2-QZVPPD tightscf slowconv kdiis

*xyz 0 3
 Ti 0.0 0.0 0.0
*

%maxcore 5000 

%pal
nprocs 24
end

