#
# 26_Fe CCSD(T)/Def2-QZVPPD
#
! CCSD(T) Def2-QZVPPD tightscf veryslowconv kdiis

*xyz 0 5
 Fe 0.0 0.0 0.0
*

%maxcore 5000 

%pal
nprocs 24
end

