#
# 28_Ni CCSD(T)/Def2-QZVPPD
#
! CCSD(T) Def2-QZVPPD tightscf slowconv

*xyz 0 3
 Ni 0.0 0.0 0.0
*

%maxcore 5000 

%pal
nprocs 24
end

