#
# 35_Br CCSD(T)/Def2-QZVPPD
#
! CCSD(T) Def2-QZVPPD tightscf

*xyz 0 2
 Br 0.0 0.0 0.0
*

%maxcore 5000 

%pal
nprocs 24
end

