#
# 36_Kr CCSD(T)/Def2-QZVPPD
#
! CCSD(T) Def2-QZVPPD tightscf

*xyz 0 1
 Kr 0.0 0.0 0.0
*

%maxcore 5000 

%pal
nprocs 24
end

