#
# 56_Ba CCSD(T)/Def2-QZVPPD
#
! CCSD(T) Def2-QZVPPD tightscf

*xyz 0 1
 Ba 0.0 0.0 0.0
*

%maxcore 5000 

%pal
nprocs 15
end

%method
NewNCore Ba 46 end
end

