#
# 66_Dy CCSD(T)/Def2-QZVPPD
#
! CCSD(T) Def2-QZVPPD tightscf

*xyz 0 5
 Dy 0.0 0.0 0.0
*

%maxcore 5000 

%pal
nprocs 24
end

