#
# 71_Lu CCSD(T)/Def2-QZVPPD
#
! CCSD(T) Def2-QZVPPD tightscf slowconv hcore

*xyz 0 2
 Lu 0.0 0.0 0.0
*

%maxcore 5000 

%pal
nprocs 24
end

