#
# 75_Re CCSD(T)/Def2-QZVPPD
#
! CCSD(T) Def2-QZVPPD tightscf slowconv

*xyz 0 6
 Re 0.0 0.0 0.0
*

%maxcore 5000 

%pal
nprocs 24
end

%method
NewNCore Re 60 end
end

