#
# 83_Bi CCSD(T)/Def2-QZVPPD
#
! CCSD(T) Def2-QZVPPD tightscf slowconv

*xyz 0 4
 Bi 0.0 0.0 0.0
*

%maxcore 5000 

%pal
nprocs 24
end

