#
# 01_H CCSD(T)/Def2-QZVP
#
! MP2 Def2-QZVP tightscf

*xyz 0 2
 H 0.0 0.0 0.0
*

