#
# 03_Li CCSD(T)/Def2-QZVP
#
! HF Def2-QZVP tightscf

*xyz 0 2
 Li 0.0 0.0 0.0
*

%method
NewNCore Li 2 end
end

