#
# 04_Be CCSD(T)/Def2-QZVP
#
! CCSD(T) Def2-QZVP tightscf

*xyz 0 1
 Be 0.0 0.0 0.0
*

%maxcore 5000 

%pal
nprocs 1 
end

%method
NewNCore Be 2 end
end

