#
# 10_Ne CCSD(T)/Def2-QZVP
#
! CCSD(T) Def2-QZVP tightscf

*xyz 0 1
 Ne 0.0 0.0 0.0
*

%maxcore 5000 

%pal
nprocs 10
end

