#
# 17_Cl CCSD(T)/Def2-QZVP
#
! CCSD(T) Def2-QZVP tightscf

*xyz 0 2
 Cl 0.0 0.0 0.0
*

%maxcore 5000 

%pal
nprocs 21
end

