#
# 18_Ar CCSD(T)/Def2-QZVP
#
! CCSD(T) Def2-QZVP tightscf

*xyz 0 1
 Ar 0.0 0.0 0.0
*

%maxcore 5000 

%pal
nprocs 10
end

