#
# 38_Sr CCSD(T)/Def2-QZVP
#
! CCSD(T) Def2-QZVP tightscf

*xyz 0 1
 Sr 0.0 0.0 0.0
*

%maxcore 5000 

%pal
nprocs 15 
end

%method
NewNCore Sr 28 end
end

