#
# 40_Zr CCSD(T)/Def2-QZVP
#
! CCSD(T) Def2-QZVP verytightscf slowconv kdiis

*xyz 0 3
 Zr 0.0 0.0 0.0
*

%maxcore 5000 

%pal
nprocs 24
end

%mdci
maxiter 100
maxdiis 25
end

