#
# 44_Ru CCSD(T)/Def2-QZVP
#
! CCSD(T) Def2-QZVP tightscf slowconv

*xyz 0 5
 Ru 0.0 0.0 0.0
*

%maxcore 5000 

%pal
nprocs 24
end

