#
# 51_Sb CCSD(T)/Def2-QZVP
#
! CCSD(T) Def2-QZVP tightscf

*xyz 0 4
 Sb 0.0 0.0 0.0
*

%maxcore 5000 

%pal
nprocs 24
end

