#
# 80_Hg CCSD(T)/Def2-QZVP
#
! CCSD(T) Def2-QZVP tightscf slowconv

*xyz 0 1
 Hg 0.0 0.0 0.0
*

%maxcore 5000 

%pal
nprocs 24
end

%method
NewNCore Hg 60 end
end

