#
# 84_Po CCSD(T)/Def2-QZVP
#
! CCSD(T) Def2-QZVP tightscf slowconv

*xyz 0 3
 Po 0.0 0.0 0.0
*

%maxcore 5000 

%pal
nprocs 24
end

