#
# 03_Li CCSD(T)/aug-cc-pvq(+d)z
#
! HF aug-cc-pvq(+d)z tightscf

*xyz 0 2
 Li 0.0 0.0 0.0
*

%method
NewNCore Li 2 end
end

