#
# 06_C CCSD(T)/aug-cc-pvq(+d)z
#
! CCSD(T) aug-cc-pvq(+d)z tightscf

*xyz 0 3
 C 0.0 0.0 0.0
*

%maxcore 5000 

%pal
nprocs 6 
end

