#
# 09_F CCSD(T)/aug-cc-pvq(+d)z
#
! CCSD(T) aug-cc-pvq(+d)z tightscf

*xyz 0 2
 F 0.0 0.0 0.0
*

%maxcore 5000 

%pal
nprocs 21
end

