#
# 10_Ne CCSD(T)/aug-cc-pvq(+d)z
#
! CCSD(T) aug-cc-pvq(+d)z tightscf

*xyz 0 1
 Ne 0.0 0.0 0.0
*

%maxcore 5000 

%pal
nprocs 10
end

