#
# 14_Si CCSD(T)/aug-cc-pvq(+d)z
#
! CCSD(T) aug-cc-pvq(+d)z tightscf

*xyz 0 3
 Si 0.0 0.0 0.0
*

%maxcore 5000 

%pal
nprocs 6
end

