#
# 15_P CCSD(T)/aug-cc-pvq(+d)z
#
! CCSD(T) aug-cc-pvq(+d)z tightscf

*xyz 0 4
 P 0.0 0.0 0.0
*

%maxcore 5000 

%pal
nprocs 10
end

