#
# 24_Cr CCSD(T)/aug-cc-pvq(+d)z
#
! CCSD(T) aug-cc-pvq(+d)z tightscf kdiis slowconv

*xyz 0 7
 Cr 0.0 0.0 0.0
*

%maxcore 5000 

%pal
nprocs 24
end

