#
# 25_Mn CCSD(T)/aug-cc-pvq(+d)z
#
! CCSD(T) aug-cc-pvq(+d)z tightscf

*xyz 0 6
 Mn 0.0 0.0 0.0
*

%maxcore 5000 

%pal
nprocs 24
end

