#
# 27_Co CCSD(T)/aug-cc-pvq(+d)z
#
! CCSD(T) aug-cc-pvq(+d)z tightscf

*xyz 0 4
 Co 0.0 0.0 0.0
*

%maxcore 5000 

%pal
nprocs 24
end

