#
# 02_He CCSD(T)/aug-cc-pvt(+d)z
#
! CCSD(T) aug-cc-pvt(+d)z tightscf

*xyz 0 1
 He 0.0 0.0 0.0
*

%maxcore 5000 

%pal
nprocs 1
end

