#
# 12_Mg CCSD(T)/aug-cc-pvt(+d)z
#
! CCSD(T) aug-cc-pvt(+d)z tightscf

*xyz 0 1
 Mg 0.0 0.0 0.0
*

%maxcore 5000 

%pal
nprocs 1
end

%method
NewNCore Mg 10 end
end

