#
# 17_Cl CCSD(T)/aug-cc-pvt(+d)z
#
! CCSD(T) aug-cc-pvt(+d)z tightscf

*xyz 0 2
 Cl 0.0 0.0 0.0
*

%maxcore 5000 

%pal
nprocs 21
end

