#
# 22_Ti CCSD(T)/aug-cc-pvt(+d)z
#
! CCSD(T) aug-cc-pvt(+d)z tightscf

*xyz 0 3
 Ti 0.0 0.0 0.0
*

%maxcore 5000 

%pal
nprocs 24
end

