#
# 28_Ni CCSD(T)/aug-cc-pvt(+d)z
#
! CCSD(T) aug-cc-pvt(+d)z tightscf veryslowconv kdiis

*xyz 0 3
 Ni 0.0 0.0 0.0
*

%maxcore 5000 

%pal
nprocs 24
end

