#
# 36_Kr CCSD(T)/aug-cc-pvt(+d)z
#
! CCSD(T) aug-cc-pvt(+d)z tightscf

*xyz 0 1
 Kr 0.0 0.0 0.0
*

%maxcore 5000 

%pal
nprocs 24
end

